100 2399
515 252 564 560 974 534 995 974 848 479 537 507 529 1063 643 245 961 644 978 164 455 109 483 157 816 305 284 572 128 413 228 526 825 588 1040 532 989 312 630 139 153 375 823 881 976 1026 854 1058 1040 223 216 984 758 942 855 721 353 352 495 258 1093 283 763 234 767 570 413 521 648 401 513 239 824 455 748 1057 800 276 534 917 323 1010 257 271 106 575 245 133 1035 720 394 341 1013 506 729 198 595 594 752 771 
415 152 464 460 874 434 895 874 748 379 437 407 429 963 543 145 861 544 878 64 355 9 383 57 716 205 184 472 28 313 128 426 725 488 940 432 889 212 530 39 53 275 723 781 876 926 754 958 940 123 116 884 658 842 755 621 253 252 395 158 993 183 663 134 667 470 313 421 548 301 413 139 724 355 648 957 700 176 434 817 223 910 157 171 6 475 145 33 935 620 294 241 913 406 629 98 495 494 652 671 
